86
116
0
176
33
250
40
21
64
29
85
27
52
29
84
71
79
54
61
96
76
41
25
31
70
82
647
81
1028
74
22
36
72
56
78
146
26
52
32
136
74
180
90
49
22
128
25
66
60
77
46
21
31
0
31
57
249
29
55
54
49
52
370
99
147
52
64
351
102
47
58
37
105
74
53
0
100
222
48
0
65
36
19
59
36
78
31
43
20
225
39
49
34
68
205
30
23
78
69
36
